/*    24 buckets
[150,200,212,215,251,277,315,370,400,414,450,477,581,697,841,888,999,1
000,1059,1137,1214,1315,1423,1433,1450,1493,1525,1586]
tot = 22372, tot/4 = 5593
*/

max: ;

atot >= btot;
btot >= ctot;
ctot >= dtot;
atot <= 5593;
dtot >= 5593;

atot = 150 ag1 + 200 ag2 + 212 ag3 + 215 ag4 + 251 ag5 + 277 ag6 +
315 ag7 + 370 ag8 + 400 ag9 + 414 ag10 + 450 ag11 + 477 ag12 + 581
ag13 + 697 ag14 + 841 ag15 + 888 ag16 + 999 ag17 + 1000 ag18 + 1059
ag19 + 1137 ag20 + 1214 ag21 + 1315 ag22 + 1423 ag23 + 1433 ag24 +
1450 ag25 + 1493 ag26 + 1525 ag27 + 1586 ag28;
btot = 150 bg1 + 200 bg2 + 212 bg3 + 215 bg4 + 251 bg5 + 277 bg6 +
315 bg7 + 370 bg8 + 400 bg9 + 414 bg10 + 450 bg11 + 477 bg12 + 581
bg13 + 697 bg14 + 841 bg15 + 888 bg16 + 999 bg17 + 1000 bg18 + 1059
bg19 + 1137 bg20 + 1214 bg21 + 1315 bg22 + 1423 bg23 + 1433 bg24 +
1450 bg25 + 1493 bg26 + 1525 bg27 + 1586 bg28;
ctot = 150 cg1 + 200 cg2 + 212 cg3 + 215 cg4 + 251 cg5 + 277 cg6 +
315 cg7 + 370 cg8 + 400 cg9 + 414 cg10 + 450 cg11 + 477 cg12 + 581
cg13 + 697 cg14 + 841 cg15 + 888 cg16 + 999 cg17 + 1000 cg18 + 1059
cg19 + 1137 cg20 + 1214 cg21 + 1315 cg22 + 1423 cg23 + 1433 cg24 +
1450 cg25 + 1493 cg26 + 1525 cg27 + 1586 cg28;
dtot = 150 dg1 + 200 dg2 + 212 dg3 + 215 dg4 + 251 dg5 + 277 dg6 +
315 dg7 + 370 dg8 + 400 dg9 + 414 dg10 + 450 dg11 + 477 dg12 + 581
dg13 + 697 dg14 + 841 dg15 + 888 dg16 + 999 dg17 + 1000 dg18 + 1059
dg19 + 1137 dg20 + 1214 dg21 + 1315 dg22 + 1423 dg23 + 1433 dg24 +
1450 dg25 + 1493 dg26 + 1525 dg27 + 1586 dg28;

ag1 + ag2 + ag3 + ag4 + ag5 + ag6 + ag7 + ag8 + ag9 + ag10 + ag11 +
ag12 + ag13 + ag14 + ag15 + ag16 + ag17 + ag18 + ag19 + ag20 + ag21 +
ag22 + ag23 + ag24 + ag25 + ag26 + ag27 + ag28 = 7;
bg1 + bg2 + bg3 + bg4 + bg5 + bg6 + bg7 + bg8 + bg9 + bg10 + bg11 +
bg12 + bg13 + bg14 + bg15 + bg16 + bg17 + bg18 + bg19 + bg20 + bg21 +
bg22 + bg23 + bg24 + bg25 + bg26 + bg27 + bg28 = 7;
cg1 + cg2 + cg3 + cg4 + cg5 + cg6 + cg7 + cg8 + cg9 + cg10 + cg11 +
cg12 + cg13 + cg14 + cg15 + cg16 + cg17 + cg18 + cg19 + cg20 + cg21 +
cg22 + cg23 + cg24 + cg25 + cg26 + cg27 + cg28 = 7;
dg1 + dg2 + dg3 + dg4 + dg5 + dg6 + dg7 + dg8 + dg9 + dg10 + dg11 +
dg12 + dg13 + dg14 + dg15 + dg16 + dg17 + dg18 + dg19 + dg20 + dg21 +
dg22 + dg23 + dg24 + dg25 + dg26 + dg27 + dg28 = 7;

ag1 + bg1 + cg1 + dg1 = 1;
ag2 + bg2 + cg2 + dg2 = 1;
ag3 + bg3 + cg3 + dg3 = 1;
ag4 + bg4 + cg4 + dg4 = 1;
ag5 + bg5 + cg5 + dg5 = 1;
ag6 + bg6 + cg6 + dg6 = 1;
ag7 + bg7 + cg7 + dg7 = 1;
ag8 + bg8 + cg8 + dg8 = 1;
ag9 + bg9 + cg9 + dg9 = 1;
ag10 + bg10 + cg10 + dg10 = 1;
ag11 + bg11 + cg11 + dg11 = 1;
ag12 + bg12 + cg12 + dg12 = 1;
ag13 + bg13 + cg13 + dg13 = 1;
ag14 + bg14 + cg14 + dg14 = 1;
ag15 + bg15 + cg15 + dg15 = 1;
ag16 + bg16 + cg16 + dg16 = 1;
ag17 + bg17 + cg17 + dg17 = 1;
ag18 + bg18 + cg18 + dg18 = 1;
ag19 + bg19 + cg19 + dg19 = 1;
ag20 + bg20 + cg20 + dg20 = 1;
ag21 + bg21 + cg21 + dg21 = 1;
ag22 + bg22 + cg22 + dg22 = 1;
ag23 + bg23 + cg23 + dg23 = 1;
ag24 + bg24 + cg24 + dg24 = 1;
ag25 + bg25 + cg25 + dg25 = 1;
ag26 + bg26 + cg26 + dg26 = 1;
ag27 + bg27 + cg27 + dg27 = 1;
ag28 + bg28 + cg28 + dg28 = 1;

bin ag1, ag2, ag3, ag4, ag5, ag6, ag7, ag8, ag9, ag10, ag11, ag12,
bg1, bg2, bg3, bg4, bg5, bg6, bg7, bg8, bg9, bg10, bg11, bg12, cg1,
cg2, cg3, cg4, cg5, cg6, cg7, cg8, cg9, cg10, cg11, cg12, dg1, dg2,
dg3, dg4, dg5, dg6, dg7, dg8, dg9, dg10, dg11, dg12, ag13, ag14,
ag15, bg13, bg14, bg15, cg13, cg14, cg15, dg13, dg14, dg15, ag16,
ag17, ag18, bg16, bg17, bg18, cg16, cg17, cg18, dg16, dg17, dg18,
ag19, ag20, ag21, ag22, ag23, ag24, bg19, bg20, bg21, bg22, bg23,
bg24, cg19, cg20, cg21, cg22, cg23, cg24, dg19, dg20, dg21, dg22,
dg23, dg24, ag25, ag26, ag27, ag28, bg25, bg26, bg27, bg28, cg25,
cg26, cg27, cg28, dg25, dg26, dg27, dg28;
